10
23
0 137 4 162 197 54 128 100 25 52 109 45 44 157 147 20 187 95 102 192 74 110 172
24
0 169 43 84 23 175 10 82 183 13 144 96 150 39 103 135 99 198 134 42 189 56 182 145
22
0 70 32 179 111 21 89 57 62 49 12 170 127 124 24 11 158 195 26 132 73 129
20
0 123 59 178 78 2 120 6 154 55 106 191 185 40 35 141 93 196 193 30
23
0 51 46 114 38 72 184 87 167 47 117 14 86 29 68 188 174 34 139 159 126 37 108
17
0 27 17 180 181 60 116 156 101 69 115 19 36 161 50 85 67
20
0 105 22 151 140 146 90 200 118 149 143 173 165 130 80 168 148 48 61 91
23
0 65 136 64 41 66 152 8 1 3 190 163 63 107 77 138 9 153 155 31 97 18 83
16
0 5 88 16 76 7 113 166 15 122 94 104 98 176 112 119
22
0 164 125 131 121 79 33 75 58 186 177 92 142 171 194 28 160 133 81 71 199 53
